BEGIN
BEGIN_PATH_INPUT
&PATH
  restart_mode      = 'from_scratch'
  string_method     = 'neb'
  nstep_path        = 150,
  ds                = 1.D0,
  opt_scheme        = "broyden",
  num_of_images     = 10,
  CI_scheme         = 'no-CI',
  path_thr          = 0.05D0,
/
END_PATH_INPUT

BEGIN_ENGINE_INPUT
&CONTROL
  prefix         = "Pt_O_neb.in"
  pseudo_dir = '/home/jk7877/qe_potentials'
/
&system
    ibrav = 0,
    nat = 29, 
    ntyp = 2,
    ecutwfc = 40.0,
    ecutrho = 450.0,
    occupations = 'smearing',
    smearing = 'marzari-vanderbilt',
    degauss = 0.02
/
&ELECTRONS
    mixing_beta = 0.2
    electron_maxstep = 200
/
&IONS
/
ATOMIC_SPECIES
Pt 195.084000  Pt.pbe-n-rrkjus_psl.1.0.0.UPF
O   15.999      O.pbe-n-rrkjus_psl.1.0.0.UPF

K_POINTS automatic
4 4 4 1 1 1

BEGIN_POSITIONS
FIRST_IMAGE
ATOMIC_POSITIONS (angstrom)
O        0.000000000   1.685848025  15.037660741
Pt       0.000000000   0.000000000   0.000000000    0   0   0
Pt       0.000000000   0.011132476  13.856778349
Pt       0.000000000   3.247019000   4.591979000    0   0   0
Pt       2.812001000   1.669819020   9.182425835
Pt       1.406000000   4.058773000   2.295989000    0   0   0
Pt      -1.406540911   2.452484680   6.894097388
Pt       1.405500240   0.867274598  11.455673395
Pt       0.000000000   1.623510000   2.295989000    0   0   0
Pt       2.812001000   0.016704377   6.859139637
Pt       2.812001000   3.302344604  11.596099909
Pt       4.218001000   0.811755000   4.591979000    0   0   0
Pt      -1.410609207   4.094501219   9.182079562
Pt       1.406000000   2.435264000   0.000000000    0   0   0
Pt       1.451661022   2.523391091  13.858336658
Pt      -1.406000000   4.058773000   2.295989000    0   0   0
Pt       1.406540911   2.452484680   6.894097388
Pt       4.218501760   0.867274598  11.455673395
Pt       2.812001000   3.247019000   4.591978000    0   0   0
Pt       0.000000000   1.662873463   9.188471750
Pt       2.812001000   0.000000000   0.000000000    0   0   0
Pt       2.812001000   0.061174131  13.726969094
Pt       1.406000000   0.811755000   4.591978000    0   0   0
Pt       1.410608207   4.094501219   9.182078562
Pt      -1.406000000   2.435264000   0.000000000    0   0   0
Pt      -1.451661022   2.523391091  13.858336658
Pt       0.000000000   0.018135886   6.894620670
Pt       0.000000000   3.296651597  11.456886296
Pt       2.812001000   1.623510000   2.295989000    0   0   0
LAST_IMAGE
ATOMIC_POSITIONS (angstrom)
O        1.405906747  -0.715662801  15.038490986
Pt       0.000000000   0.000000000   0.000000000    0   0   0
Pt      -0.044948441   0.121230912  13.858226505
Pt       0.000000000   3.247019154   4.591978888    0   0   0
Pt       2.816196240   1.685990921   9.181110875
Pt       1.405999992   4.058773144   2.295989015    0   0   0
Pt      -1.406024757   2.468045275   6.893663393
Pt       1.405980692   0.894180282  11.457215693
Pt       0.000000000   1.623510012   2.295989015    0   0   0
Pt       2.812351120   0.031997252   6.893539627
Pt       2.813462365   3.332897778  11.456441972
Pt       4.218000898   0.811755006   4.591978888    0   0   0
Pt      -1.405964895   4.123882080   9.189512629
Pt       1.406000076   2.435264148   0.000000000    0   0   0
Pt       1.406411327   2.530477785  13.724361473
Pt      -1.406000076   4.058773144   2.295989015    0   0   0
Pt       1.405917932   2.466035886   6.859336664
Pt       4.217809757   0.899735514  11.594802995
Pt       2.812000822   3.247019154   4.591978031    0   0   0
Pt      -0.004051916   1.685625549   9.181470126
Pt       2.812000990   0.000000000   0.000000000    0   0   0
Pt       2.856224972   0.121726590  13.856694983
Pt       1.406000076   0.811755006   4.591978031    0   0   0
Pt       1.405749418   4.131102906   9.181671418
Pt      -1.406000411   2.435264148   0.000000000    0   0   0
Pt      -1.406321397   2.478559589  13.860394346
Pt      -0.000394575   0.031279834   6.892889155
Pt      -0.001795861   3.334491981  11.456167645
Pt       2.812000822   1.623510012   2.295989015    0   0   0
END_POSITIONS
CELL_PARAMETERS (angstrom)
 5.6240019798         0.0000000000         0.0000000000
 -2.8120009899         4.8705285855        0.0000000000
  0.0000000000         0.0000000000        28.7759351730
END_ENGINE_INPUT
END